Maximize
  92.384 C0 + 36.677 C1 + 30.912 C2 + 86.239 C3 + 22.148 C4 + 76.057 C5
   + 78.646 C6 + 36.942 C7 + 103.905 C8 + 51.84 C9 + 0 C10 + [
   - 2.12 C0 * C1 - 11.236 C0 * C2 + 10.05 C0 * C3 - 15.668 C0 * C4
   + 19.138 C0 * C5 + 14.35 C0 * C6 + 1.268 C0 * C7 + 2.602 C0 * C8
   + 15.656 C0 * C9 - 11.216 C1 * C2 - 8.926 C1 * C3 + 8.088 C1 * C4
   + 9.218 C1 * C5 + 5.848 C1 * C6 + 12.09 C1 * C7 - 9.824 C1 * C8
   + 11.704 C1 * C9 + 5.958 C2 * C3 + 10.382 C2 * C4 - 8.748 C2 * C5
   + 7.668 C2 * C6 + 6.636 C2 * C7 + 5.73 C2 * C8 - 0.822 C2 * C9
   + 2.514 C3 * C4 - 13.456 C3 * C5 + 7.262 C3 * C6 + 1.016 C3 * C7
   - 17.74 C3 * C8 + 19.904 C3 * C9 - 6.248 C4 * C5 - 0.162 C4 * C6
   - 5.656 C4 * C7 + 8.824 C4 * C8 + 1.668 C4 * C9 - 12.69 C5 * C6
   + 8.59 C5 * C7 - 16.014 C5 * C8 + 7.212 C5 * C9 + 3.554 C6 * C7
   - 15.006 C6 * C8 + 11.864 C6 * C9 - 3.252 C7 * C8 + 11.162 C7 * C9
   - 0.078 C8 * C9 ] / 2 
Subject To
 R0: 48.145 C0 + 37.464 C1 + 28.491 C2 + 44.232 C3 + 25.88 C4 + 46.208 C5
   + 40.142 C6 + 33.502 C7 + 49.814 C8 + 30.011 C9 <= 100
Bounds
 C0 <= 1
 C1 <= 1
 C2 <= 1
 C3 <= 1
 C4 <= 1
 C5 <= 1
 C6 <= 1
 C7 <= 1
 C8 <= 1
 C9 <= 1
 C10 <= 1
End
